
Gurobi 9.1.2 (linux64, gurobi_cl) logging started Fri Jul 30 13:54:52 2021

Using license file /opt/gurobi/gurobi.lic
Set parameter TimeLimit to value 600
Set parameter Heuristics to value 0.1
Set parameter Cuts to value 0
Set parameter LogFile to value 912-Cuts0-Heuristics0.1-glass4-2.log
Set parameter Seed to value 2

Gurobi Optimizer version 9.1.2 build v9.1.2rc0 (linux64)
Copyright (c) 2021, Gurobi Optimization, LLC

Read MPS format model from file /nfs/models/mip/glass4.mps.bz2
Reading time = 0.00 seconds
glass4: 396 rows, 322 columns, 1815 nonzeros
Thread count: 4 physical cores, 8 logical processors, using up to 8 threads
Optimize a model with 396 rows, 322 columns and 1815 nonzeros
Model fingerprint: 0x0a9d9037
Variable types: 20 continuous, 302 integer (0 binary)
Coefficient statistics:
  Matrix range     [1e+00, 8e+06]
  Objective range  [1e+00, 1e+06]
  Bounds range     [1e+00, 8e+02]
  RHS range        [1e+00, 8e+06]
Presolve removed 6 rows and 6 columns
Presolve time: 0.00s
Presolved: 390 rows, 316 columns, 1803 nonzeros
Variable types: 19 continuous, 297 integer (297 binary)
Found heuristic solution: objective 3.133356e+09

Root relaxation: objective 8.000024e+08, 72 iterations, 0.00 seconds

    Nodes    |    Current Node    |     Objective Bounds      |     Work
 Expl Unexpl |  Obj  Depth IntInf | Incumbent    BestBd   Gap | It/Node Time

     0     0 8.0000e+08    0   72 3.1334e+09 8.0000e+08  74.5%     -    0s
H    0     0                    2.150017e+09 8.0000e+08  62.8%     -    0s
H    0     0                    2.100017e+09 8.0000e+08  61.9%     -    0s
     0     0 8.0000e+08    0   72 2.1000e+09 8.0000e+08  61.9%     -    0s
H    0     2                    2.000017e+09 8.0000e+08  60.0%     -    0s
     0     2 8.0000e+08    0   72 2.0000e+09 8.0000e+08  60.0%     -    0s
H   31    60                    1.933350e+09 8.0000e+08  58.6%   2.6    0s
H  607   823                    1.900015e+09 8.0000e+08  57.9%   2.3    0s
H  888   822                    1.866683e+09 8.0000e+08  57.1%   2.4    0s
H  940   920                    1.850016e+09 8.0000e+08  56.8%   2.5    0s
H 1001   919                    1.825016e+09 8.0000e+08  56.2%   2.5    0s
H 1156   932                    1.800015e+09 8.0000e+08  55.6%   2.5    0s
H 1205   929                    1.750015e+09 8.0000e+08  54.3%   2.5    0s
* 3253  1611             102    1.650016e+09 8.0000e+08  51.5%   3.4    0s
* 8782  5262              71    1.650015e+09 8.0000e+08  51.5%   3.5    1s
H 8855  4819                    1.566681e+09 8.0000e+08  48.9%   3.5    1s
H 8887  4055                    1.400013e+09 8.0000e+08  42.9%   3.5    1s
H10708  4722                    1.400013e+09 8.0000e+08  42.9%   3.7    1s
H12544  4870                    1.350013e+09 8.0000e+08  40.7%   3.8    2s
H12586  3752                    1.200013e+09 8.0000e+08  33.3%   3.8    2s

Explored 20637 nodes (86512 simplex iterations) in 2.70 seconds
Thread count was 8 (of 8 available processors)

Solution count 10: 1.20001e+09 1.35001e+09 1.40001e+09 ... 1.82502e+09

Optimal solution found (tolerance 1.00e-04)
Best objective 1.200012600000e+09, best bound 1.200003400000e+09, gap 0.0008%
